270 5
10 10 10 10 10 

0 0 0 0 0 0 5 2 34 66 98 110 
0 0 0 0 0 0 2 3 32 
8 0 1 0 1 1 1 4 
2 0 5 0 3 4 1 5 
5 0 6 0 7 6 1 6 
10 0 5 0 3 3 1 7 
8 0 6 0 7 5 2 26 8 
3 0 4 0 5 4 1 9 
3 0 7 0 4 7 1 10 
2 0 5 0 5 8 3 18 13 11 
7 0 3 0 6 5 2 15 12 
2 0 5 0 7 5 3 20 17 14 
6 0 7 0 6 5 2 20 19 
1 0 3 0 4 2 1 16 
7 0 8 0 10 3 1 16 
6 0 6 0 4 6 1 19 
3 0 2 0 3 7 1 19 
8 0 6 0 5 4 1 20 
2 0 2 0 3 4 1 21 
3 0 8 0 5 8 1 21 
10 0 2 0 6 5 1 22 
2 0 9 0 5 5 2 31 23 
5 0 3 0 7 5 1 24 
7 0 6 0 5 2 1 25 
4 0 4 0 5 7 1 27 
8 0 5 0 7 7 1 27 
2 0 4 0 4 5 1 28 
7 0 5 0 6 5 1 29 
10 0 2 0 8 5 2 30 182 
2 0 6 0 5 7 1 33 
5 0 8 0 1 4 1 33 
6 0 7 0 3 6 1 33 
0 0 0 0 0 0 1 234 
0 0 0 0 0 0 2 35 64 
5 0 1 1 1 0 1 36 
1 0 3 7 3 0 1 37 
3 0 9 2 6 0 1 38 
9 0 2 3 7 0 1 39 
7 0 7 7 7 0 2 63 40 
8 0 9 3 4 0 1 41 
2 0 1 4 6 0 1 42 
10 0 10 5 2 0 4 53 47 45 43 
3 0 4 5 5 0 1 44 
7 0 3 7 8 0 3 51 49 46 
3 0 4 8 7 0 3 51 50 89 
3 0 8 9 6 0 1 48 
6 0 5 3 6 0 1 48 
2 0 3 1 5 0 1 50 
8 0 4 5 3 0 1 50 
8 0 3 6 4 0 1 52 
7 0 6 8 5 0 1 52 
7 0 4 3 5 0 1 54 
8 0 6 5 8 0 1 54 
9 0 8 7 3 0 2 62 55 
7 0 3 3 8 0 1 56 
4 0 8 4 5 0 1 57 
7 0 6 6 4 0 1 58 
6 0 5 5 4 0 1 59 
3 0 1 6 6 0 1 60 
7 0 4 5 8 0 1 61 
9 0 5 5 5 0 1 65 
1 0 8 7 4 0 1 65 
1 0 4 6 1 0 1 65 
6 0 6 4 4 0 1 65 
0 0 0 0 0 0 1 234 
0 0 0 0 0 0 2 67 96 
7 1 0 0 1 1 1 68 
10 10 0 0 3 6 1 69 
7 5 0 0 4 5 1 70 
3 8 0 0 3 5 1 71 
5 3 0 0 10 4 2 90 72 
6 4 0 0 3 6 1 73 
4 4 0 0 4 5 1 74 
6 7 0 0 7 4 3 85 77 75 
7 3 0 0 7 5 3 79 76 240 
1 5 0 0 5 3 3 83 81 78 
8 4 0 0 2 4 2 83 82 
9 5 0 0 5 3 1 80 
7 6 0 0 5 6 1 80 
4 5 0 0 7 6 1 82 
8 3 0 0 7 5 1 82 
2 10 0 0 5 3 1 84 
8 1 0 0 2 4 1 84 
6 5 0 0 5 7 1 86 
7 2 0 0 6 8 1 86 
5 2 0 0 3 5 2 95 87 
9 5 0 0 4 7 1 88 
9 10 0 0 5 6 1 89 
9 6 0 0 7 5 1 91 
4 6 0 0 5 8 1 91 
1 4 0 0 4 8 1 92 
4 4 0 0 6 5 1 93 
2 4 0 0 5 3 1 94 
9 2 0 0 6 2 1 97 
8 10 0 0 7 5 1 97 
10 6 0 0 7 6 1 97 
0 0 0 0 0 0 1 234 
0 0 0 0 0 0 1 99 
1 0 0 1 0 0 1 100 
9 0 0 7 0 0 2 104 101 
8 0 0 5 0 0 2 107 102 
2 0 0 7 0 0 2 106 103 
7 0 0 4 0 0 1 105 
5 0 0 7 0 0 1 105 
7 0 0 1 0 0 1 108 
5 0 0 5 0 0 1 108 
5 0 0 8 0 0 1 108 
2 0 0 5 0 0 1 109 
0 0 0 0 0 0 3 142 164 176 
0 0 0 0 0 0 4 111 138 139 140 
9 1 0 1 2 0 1 112 
5 7 0 3 3 0 2 137 113 
6 4 0 8 6 0 1 114 
5 6 0 5 4 0 1 115 
2 5 0 5 1 0 4 136 135 134 116 
10 5 0 6 8 0 1 117 
7 4 0 3 5 0 1 118 
2 4 0 7 3 0 1 119 
4 3 0 1 4 0 1 120 
7 4 0 5 5 0 1 121 
6 8 0 3 6 0 1 122 
4 4 0 7 3 0 2 133 123 
10 2 0 4 3 0 1 124 
3 6 0 9 2 0 1 125 
3 5 0 4 5 0 1 126 
7 6 0 5 7 0 1 127 
7 5 0 2 9 0 1 128 
6 5 0 7 7 0 1 129 
1 5 0 8 3 0 1 130 
9 9 0 5 10 0 1 131 
8 9 0 8 5 0 1 132 
2 6 0 1 5 0 1 141 
9 2 0 7 5 0 1 141 
6 6 0 5 2 0 1 141 
1 3 0 5 10 0 1 141 
3 7 0 5 4 0 1 141 
8 6 0 4 8 0 1 141 
3 6 0 6 7 0 1 141 
9 4 0 4 4 0 1 141 
2 3 0 7 4 0 1 141 
0 0 0 0 0 0 1 234 
0 0 0 0 0 0 2 143 145 
7 0 1 1 0 0 2 148 144 
5 0 7 4 0 0 1 146 
5 0 4 5 0 0 1 146 
10 0 5 2 0 0 1 147 
5 0 6 5 0 0 1 149 
10 0 5 8 0 0 1 149 
6 0 4 9 0 0 1 150 
10 0 6 6 0 0 3 159 153 151 
6 0 2 6 0 0 1 152 
8 0 5 6 0 0 1 154 
4 0 3 6 0 0 1 154 
9 0 3 6 0 0 2 162 155 
4 0 9 3 0 0 1 156 
2 0 6 6 0 0 1 157 
2 0 10 2 0 0 1 158 
10 0 6 6 0 0 1 160 
10 0 4 2 0 0 1 160 
10 0 5 5 0 0 1 161 
2 0 4 7 0 0 1 163 
4 0 5 5 0 0 1 163 
0 0 0 0 0 0 1 234 
0 0 0 0 0 0 4 165 170 173 174 
9 0 1 0 0 0 1 166 
8 0 5 0 0 0 1 167 
5 0 6 0 0 0 1 168 
6 0 2 0 0 0 1 169 
1 0 4 0 0 0 1 171 
4 0 7 0 0 0 1 171 
2 0 7 0 0 0 1 172 
3 0 5 0 0 0 1 175 
7 0 6 0 0 0 1 175 
4 0 7 0 0 0 1 175 
0 0 0 0 0 0 3 198 210 222 
0 0 0 0 0 0 2 177 178 
7 1 0 2 0 0 2 180 179 
2 10 0 4 0 0 2 180 179 
8 7 0 6 0 0 2 182 181 
7 6 0 3 0 0 2 182 181 
10 3 0 10 0 0 1 183 
1 7 0 6 0 0 1 183 
3 5 0 5 0 0 1 184 
4 3 0 6 0 0 1 185 
10 4 0 4 0 0 2 187 186 
2 4 0 3 0 0 1 188 
5 7 0 10 0 0 1 188 
6 6 0 7 0 0 1 189 
2 1 0 2 0 0 1 190 
9 8 0 4 0 0 1 191 
1 5 0 8 0 0 2 195 192 
6 4 0 3 0 0 1 193 
6 3 0 3 0 0 1 194 
5 9 0 5 0 0 1 196 
2 3 0 5 0 0 1 196 
10 4 0 4 0 0 1 197 
0 0 0 0 0 0 1 234 
0 0 0 0 0 0 2 199 205 
10 1 0 0 0 0 3 208 207 200 
8 8 0 0 0 0 1 201 
9 3 0 0 0 0 1 202 
3 6 0 0 0 0 1 203 
3 9 0 0 0 0 1 204 
6 5 0 0 0 0 1 206 
5 7 0 0 0 0 1 206 
5 2 0 0 0 0 1 209 
6 3 0 0 0 0 1 209 
1 6 0 0 0 0 1 209 
0 0 0 0 0 0 1 234 
0 0 0 0 0 0 2 211 217 
10 0 0 1 0 0 2 214 212 
8 0 0 3 0 0 1 213 
6 0 0 7 0 0 2 219 215 
1 0 0 6 0 0 2 219 218 
10 0 0 9 0 0 1 216 
2 0 0 4 0 0 1 218 
7 0 0 6 0 0 1 218 
9 0 0 6 0 0 1 220 
8 0 0 3 0 0 1 220 
1 0 0 5 0 0 1 221 
0 0 0 0 0 0 1 234 
0 0 0 0 0 0 3 223 225 227 
4 0 0 0 0 1 2 231 224 
7 0 0 0 0 2 1 226 
5 0 0 0 0 10 2 231 229 
2 0 0 0 0 6 1 228 
3 0 0 0 0 4 1 228 
5 0 0 0 0 4 1 229 
1 0 0 0 0 3 1 230 
8 0 0 0 0 6 1 232 
5 0 0 0 0 5 1 232 
10 0 0 0 0 9 1 233 
0 0 0 0 0 0 1 234 
0 0 0 0 0 0 2 235 247 
0 0 0 0 0 0 1 236 
4 0 1 0 0 0 1 237 
9 0 5 0 0 0 2 240 238 
6 0 2 0 0 0 2 243 239 
6 0 10 0 0 0 2 245 241 
1 0 5 0 0 0 1 241 
4 0 6 0 0 0 1 242 
3 0 4 0 0 0 1 244 
8 0 5 0 0 0 1 244 
3 0 4 0 0 0 1 246 
4 0 8 0 0 0 1 246 
0 0 0 0 0 0 1 259 
0 0 0 0 0 0 3 248 251 257 
8 2 0 0 0 0 1 249 
8 6 0 0 0 0 2 256 250 
3 6 0 0 0 0 1 252 
5 5 0 0 0 0 1 252 
1 6 0 0 0 0 1 253 
10 2 0 0 0 0 1 254 
6 10 0 0 0 0 1 255 
10 4 0 0 0 0 1 258 
2 7 0 0 0 0 1 258 
8 2 0 0 0 0 1 258 
0 0 0 0 0 0 1 259 
0 0 0 0 0 0 2 260 262 
1 0 0 0 1 0 2 263 261 
10 0 0 0 6 0 1 264 
5 0 0 0 5 0 1 263 
4 0 0 0 2 0 2 268 265 
8 0 0 0 4 0 2 268 265 
8 0 0 0 5 0 1 266 
5 0 0 0 3 0 1 267 
4 0 0 0 9 0 1 269 
7 0 0 0 7 0 1 269 
4 0 0 0 8 0 1 270 
0 0 0 0 0 0 0 
